
  22   10
  10   10   10   10   10   10   10   10   10   10

   0   0   0   0   0   0   0   0   0   0   0   1 2 
   7   0   0  10   0   0   0   0   0   0   0   1 3 
   5   0   0  10   0   0   0   0   0   0   0   1 4 
   8   0   0   0   0   0   0   0   0  10   0   1 5 
   9   0  10   0   0   0   0   0   0   0   0   1 6 
   4   0   0   0  10   0   0   0   0   0   0   1 7 
   2   0   0   0   0   0   0   0   0   0  10   2 12 8 
   5   0   0  10   0   0   0   0   0   0   0   1 9 
   6   0   0   0   0   0   0  10   0   0   0   1 10 
   1   0   0   0   0  10   0   0   0   0   0   1 11 
   7   0   0   0   0   0   0   0   0  10   0   2 21 13 
   4   0   0  10   0   0   0   0   0   0   0   2 21 13 
   5   0   0   0   0  10   0   0   0   0   0   1 14 
   9   0   0   0   0   0   0   0   0  10   0   1 15 
   6   0   0   0   0   0  10   0   0   0   0   1 16 
   8   0   0   0  10   0   0   0   0   0   0   1 17 
   3   0   0   0   0  10   0   0   0   0   0   1 18 
   5   0   0   0  10   0   0   0   0   0   0   1 19 
   8   0   0  10   0   0   0   0   0   0   0   1 20 
   6  10   0   0   0   0   0   0   0   0   0   1 22
  10   0   0   0   0   0  10   0   0   0   0   1 22
   0   0   0   0   0   0   0   0   0   0   0   0 
